16 11
1 17
3 19
19 5
7 5
6 19
19 8
7 4
17 5
1 1
4 15
4 12
12 4
19 2
7 9
6 19
3 13
11 6
13 15
4 13
19 5
10 16
17 15
17 3
17 6
19 4
11 4
13 16
10 10
11 10
10 17
13 6
10 6
9 15
15 14
4 4
10 3
19 12
8 5
14 8
10 10
1 10
14 6
17 8
17 14
3 14
5 14
1 6
8 10
6 4
13 19
5 1
17 15
15 19
4 8
1 6
14 5
4 5
10 15
14 3
7 2
2 14
8 16
8 2
2 11
10 10
13 2
10 19
5 5
3 16
19 2
11 3
6 7
13 10
4 9
19 1
6 16
9 9
1 19
8 7
9 15
7 1
12 4
13 14
18 19
17 9
8 6
5 5
3 16
9 2
14 16
9 4
2 15
10 11
17 3
8 11
8 13
13 13
7 1
12 4
